(set-logic SLIA)
(constraint (= (f "University of Pennsylvania" "Phialdelphia, PA, USA") "University of Pennsylvania, Phialdelphia, PA, USA"))
(constraint (= (f "Cornell University" "Ithaca, New York, USA") "Cornell University, Ithaca, New York, USA"))
(constraint (= (f "University of Maryland College Park" "College Park, MD") "University of Maryland College Park, College Park, MD"))
(constraint (= (f "University of Michigan" "Ann Arbor, MI, USA") "University of Michigan, Ann Arbor, MI, USA"))
(constraint (= (f "Yale University" "New Haven, CT, USA") "Yale University, New Haven, CT, USA"))
(constraint (= (f "Columbia University" "New York, NY, USA") "Columbia University, New York, NY, USA"))
(check-synth)
(synth-fun f ((col1 String) (col2 String)) String ((Start String (ntString)) (ntString String ((Str A) (str.++ ntString A))) (A String ((Str ConstString) (SubStr X P P))) (P Int ((Int ntInt) (Pos X Pattern ntInt Direction))) (Pattern String ((Str ConstString) "ProperCase" "CAPS" "lowercase" "Digits" "Alphabets" "Alphanumeric" "WhiteSpace" "ProperCaseWSpaces" "CAPSWSpaces" "lowercaseSpaces" "AlphabetsWSpaces")) (X String (col1 col2)) (ConstString String (col1 col2 " " ",")) (Direction Int (0 1)) (ntInt Int (-5 -4 -3 -2 -1 0 1 2 3 4 5))))
